benchmarks/VRPTW/TSPTW/solution/n80w20.004.txt.solution
1 71 25 48 75 21 66 15 17 11 9 23 73 54 40 10 13 63 64 6 26 76 43 30 24 68 32 12 74 57 52 65 35 44 46 22 16 62 41 45 37 4 49 31 18 80 19 20 36 38 39 58 7 67 61 2 78 42 28 70 69 50 51 3 8 77 29 53 60 59 55 47 27 33 79 72 5 56 81 14 34 
615
